p cnf 90 80
-1 33 34 36 48 49 50 51 52 53 54 65 66 67 68 69 70 71 72 73 74 75 76 77 78 79 80 81 82 83 84 87 0 
-2 14 -3 -4 -5 87 0 
-6 8 87 0 
-7 38 59 87 0 
-8 6 -9 60 -10 45 86 87 0 
-11 26 87 0 
-12 87 0 
-8 6 87 0 
-13 27 30 87 0 
-14 2 -15 87 0 
-16 87 0 
-17 87 0 
-18 19 87 0 
-19 18 87 0 
-20 47 -13 27 30 -21 88 0 
-5 87 0 
-22 87 0 
-23 87 0 
-24 87 0 
-14 2 -25 87 0 
-26 11 -5 -27 13 30 -28 87 0 
-29 -30 13 27 89 -42 0 
-31 35 55 56 57 87 0 
-15 -13 27 30 87 0 
-32 87 0 
-33 1 34 36 48 49 50 51 52 53 54 65 66 67 68 69 70 71 72 73 74 75 76 77 78 79 80 81 82 83 84 87 0 
-34 1 33 36 48 49 50 51 52 53 54 65 66 67 68 69 70 71 72 73 74 75 76 77 78 79 80 81 82 83 84 87 0 
-35 31 55 56 57 87 0 
-36 1 33 34 48 49 50 51 52 53 54 65 66 67 68 69 70 71 72 73 74 75 76 77 78 79 80 81 82 83 84 88 0 
-36 1 33 34 48 49 50 51 52 53 54 65 66 67 68 69 70 71 72 73 74 75 76 77 78 79 80 81 82 83 84 89 -42 0 
-37 87 0 
-9 60 87 0 
-38 7 59 87 0 
-39 62 85 87 0 
-40 87 0 
-41 87 0 
-42 87 0 
-43 87 0 
-44 -3 -9 60 -45 10 86 87 0 
-46 -26 11 -47 20 87 0 
-48 1 33 34 36 49 50 51 52 53 54 65 66 67 68 69 70 71 72 73 74 75 76 77 78 79 80 81 82 83 84 87 0 
-49 1 33 34 36 48 50 51 52 53 54 65 66 67 68 69 70 71 72 73 74 75 76 77 78 79 80 81 82 83 84 87 0 
-50 1 33 34 36 48 49 51 52 53 54 65 66 67 68 69 70 71 72 73 74 75 76 77 78 79 80 81 82 83 84 87 0 
-51 1 33 34 36 48 49 50 52 53 54 65 66 67 68 69 70 71 72 73 74 75 76 77 78 79 80 81 82 83 84 87 0 
-52 1 33 34 36 48 49 50 51 53 54 65 66 67 68 69 70 71 72 73 74 75 76 77 78 79 80 81 82 83 84 87 0 
-53 1 33 34 36 48 49 50 51 52 54 65 66 67 68 69 70 71 72 73 74 75 76 77 78 79 80 81 82 83 84 87 0 
-54 1 33 34 36 48 49 50 51 52 53 65 66 67 68 69 70 71 72 73 74 75 76 77 78 79 80 81 82 83 84 87 0 
-55 31 35 56 57 89 -42 0 
-55 31 35 56 57 88 0 
-55 31 35 56 57 90 -22 0 
-56 31 35 55 57 -13 27 30 87 0 
-57 31 35 55 56 -13 27 30 87 0 
-46 -13 27 30 87 0 
-37 -13 27 30 87 0 
-58 -4 -59 7 38 87 0 
-60 9 87 0 
-46 -61 -3 -5 87 0 
-62 39 85 -63 87 0 
-25 -64 87 0 
-65 1 33 34 36 48 49 50 51 52 53 54 66 67 68 69 70 71 72 73 74 75 76 77 78 79 80 81 82 83 84 87 0 
-66 1 33 34 36 48 49 50 51 52 53 54 65 67 68 69 70 71 72 73 74 75 76 77 78 79 80 81 82 83 84 87 0 
-67 1 33 34 36 48 49 50 51 52 53 54 65 66 68 69 70 71 72 73 74 75 76 77 78 79 80 81 82 83 84 87 0 
-68 1 33 34 36 48 49 50 51 52 53 54 65 66 67 69 70 71 72 73 74 75 76 77 78 79 80 81 82 83 84 87 0 
-69 1 33 34 36 48 49 50 51 52 53 54 65 66 67 68 70 71 72 73 74 75 76 77 78 79 80 81 82 83 84 87 0 
-70 1 33 34 36 48 49 50 51 52 53 54 65 66 67 68 69 71 72 73 74 75 76 77 78 79 80 81 82 83 84 87 0 
-71 1 33 34 36 48 49 50 51 52 53 54 65 66 67 68 69 70 72 73 74 75 76 77 78 79 80 81 82 83 84 87 0 
-72 1 33 34 36 48 49 50 51 52 53 54 65 66 67 68 69 70 71 73 74 75 76 77 78 79 80 81 82 83 84 87 0 
-73 1 33 34 36 48 49 50 51 52 53 54 65 66 67 68 69 70 71 72 74 75 76 77 78 79 80 81 82 83 84 87 0 
-74 1 33 34 36 48 49 50 51 52 53 54 65 66 67 68 69 70 71 72 73 75 76 77 78 79 80 81 82 83 84 87 0 
-75 1 33 34 36 48 49 50 51 52 53 54 65 66 67 68 69 70 71 72 73 74 76 77 78 79 80 81 82 83 84 87 0 
-76 1 33 34 36 48 49 50 51 52 53 54 65 66 67 68 69 70 71 72 73 74 75 77 78 79 80 81 82 83 84 87 0 
-77 1 33 34 36 48 49 50 51 52 53 54 65 66 67 68 69 70 71 72 73 74 75 76 78 79 80 81 82 83 84 87 0 
-78 1 33 34 36 48 49 50 51 52 53 54 65 66 67 68 69 70 71 72 73 74 75 76 77 79 80 81 82 83 84 87 0 
-79 1 33 34 36 48 49 50 51 52 53 54 65 66 67 68 69 70 71 72 73 74 75 76 77 78 80 81 82 83 84 87 0 
-80 1 33 34 36 48 49 50 51 52 53 54 65 66 67 68 69 70 71 72 73 74 75 76 77 78 79 81 82 83 84 87 0 
-81 1 33 34 36 48 49 50 51 52 53 54 65 66 67 68 69 70 71 72 73 74 75 76 77 78 79 80 82 83 84 87 0 
-82 1 33 34 36 48 49 50 51 52 53 54 65 66 67 68 69 70 71 72 73 74 75 76 77 78 79 80 81 83 84 87 0 
-83 1 33 34 36 48 49 50 51 52 53 54 65 66 67 68 69 70 71 72 73 74 75 76 77 78 79 80 81 82 84 87 0 
-84 1 33 34 36 48 49 50 51 52 53 54 65 66 67 68 69 70 71 72 73 74 75 76 77 78 79 80 81 82 83 87 0 
-85 39 62 -86 10 45 87 0 
